File : Instances/p58
Use 144 s

38615

0 0 1 0 1 1 1 1 0 1 1 0 1 1 0 0 1 1 1 0 1 1 0 0 0 0 0 1 1 0 
18 6 21 27 2 12 21 27 18 28 4 28 13 13 28 18 13 20 16 27 18 16 5 2 10 18 27 17 4 2 6 4 4 16 27 6 20 9 16 16 18 9 6 4 20 9 13 21 6 20 27 16 21 16 20 6 18 9 18 7 4 17 7 20 13 12 5 17 28 7 18 12 6 9 5 10 20 5 20 16 10 17 9 7 4 13 6 5 27 7 28 6 7 7 2 13 28 6 17 28 28 21 12 18 4 2 4 16 16 13 17 4 27 12 12 20 28 7 17 20 9 12 17 6 9 16 2 12 9 17 28 21 12 20 5 9 13 13 28 10 12 18 6 7 7 5 16 21 27 7 27 17 10 17 20 28 2 16 13 13 13 27 10 2 5 27 5 4 13 21 5 20 28 10 9 2 27 10 4 10 5 21 2 6 12 9 28 10 17 21 2 21 6 4 7 12 7 21 10 6 
